(set-logic QF_S)
(declare-fun var0 () String)
(declare-fun var1 () String)
(declare-fun var2 () Int)
(declare-fun var3 () Int)
(declare-fun var4 () String)
(declare-fun var5 () String)
(declare-fun var6 () Int)
(assert (str.suffixof "c*NP4#" var0))
(assert (<= (str.to.int (str.substr var1 var2 var3)) (str.to.int (str.replace var4 var5 var4))))
(assert (str.prefixof var5 var1))
(assert (str.suffixof (str.replace var4 "4<cyy" var1) (str.at var0 var6)))
(check-sat)